100
32
5
15
17
6
26
8
26
25
9
26
20
1
28
9
1
10
1
18
1
1
2
5
18
16
3
1
5
4
1
8
3
1
18
6
3
4
2
3
1
2
2
4
1
3
3
20
17
4
1
1
4
23
1
4
1
5
2
2
1
1
2
1
1
17
4
18
4
1
4
2
2
3
17
1
3
2
1
1
1
3
1
3
3
1
1
2
1
2
1
17
4
3
1
2
2
1
2
2
2
2